
%FILE DATA:	Soccer Computational Problem for MiniZinc Models	%
%AUTHOR:	Jack Wall	%
%CONTACT:  	116397063@umail.ucc.ie			%
%LAST UPDATE:	02/24/2020, 18:47:36						%
%DESCRIPTION: 	24 games played with 6 games left				%


n=6; %number of teams

%Games to play
games=[|2,6|1,4|6,3|5,6|1,2|3,5|];

%Initial points
iPoints=[11,19,4,9,10,16];

%POSITION CONSTRAINTS
% [|teamID, operator, position|...]
% operators index:
%  1 for =  operator
%  2 for >  operator
%  3 for >= operator
%  4 for <  operator
%  5 for <= operator
positionConstraints=[|2,3,1|6,3,2|1,3,3|5,5,4|];